26 24 011 1
1 24 310 25 282 23 277 4 277 26 282 2 285 5 278 7 269 8 266 3 283 6 253 9 281
286 1 1
284 1 1
278 1 1
279 1 1
254 1 1
270 1 1
267 1 1
282 1 1
1 16 21 13 19 15 26 21 16 20 18 12 23 18 25 11 26 17 27 14 14 22 14 19 21
27 10 1
24 10 1
20 10 1
15 10 1
27 10 1
22 10 1
28 10 1
26 10 1
22 10 1
19 10 1
17 10 1
15 10 1
278 1 1
311 1 1
283 1 1
283 1 1
